
Gurobi 9.1.2 (win64) logging started Tue Dec  7 13:09:57 2021

Gurobi Optimizer version 9.1.2 build v9.1.2rc0 (win64)
Thread count: 8 physical cores, 8 logical processors, using up to 8 threads
Optimize a model with 1 rows, 27 columns and 26 nonzeros
Model fingerprint: 0xe8295fc9
Variable types: 1 continuous, 26 integer (26 binary)
Coefficient statistics:
  Matrix range     [1e+00, 1e+01]
  Objective range  [1e+00, 1e+00]
  Bounds range     [8e+00, 8e+00]
  RHS range        [1e+01, 1e+01]
Presolve time: 0.00s
Presolved: 1 rows, 27 columns, 26 nonzeros
Variable types: 1 continuous, 26 integer (26 binary)

Root simplex log...

Iteration    Objective       Primal Inf.    Dual Inf.      Time
       0   -8.0419231e+00   5.806186e-01   0.000000e+00     14s
       5   -6.8893961e+00   0.000000e+00   0.000000e+00     14s

Root relaxation: objective -6.889396e+00, 5 iterations, 0.00 seconds

    Nodes    |    Current Node    |     Objective Bounds      |     Work
 Expl Unexpl |  Obj  Depth IntInf | Incumbent    BestBd   Gap | It/Node Time

     0     0   -6.88940    0    1          -   -6.88940      -     -   14s
H    0     0                       0.7737864   -6.88940   990%     -   14s
     0     0   -5.52037    0    4    0.77379   -5.52037   813%     -   14s
H    0     0                       0.5086105   -5.52037  1185%     -   14s
     0     0     cutoff    0         0.50861    0.50861  0.00%     -   14s

Cutting planes:
  Cover: 2
  Implied bound: 1
  Clique: 1
  MIR: 2
  StrongCG: 1
  Relax-and-lift: 1
  Lazy constraints: 3

Explored 1 nodes (21 simplex iterations) in 14.59 seconds
Thread count was 8 (of 8 available processors)

Solution count 2: 0.508611 0.773786 

Optimal solution found (tolerance 1.00e-04)
Best objective 5.086105104294e-01, best bound 5.086105104294e-01, gap 0.0000%

User-callback calls 90, time in user-callback 18.38 sec
